0
1
2
3
8
9
10
11
1,3
24,25,63
4,5,6,7
13
14
60,90,91
16
17
18
19
20
20,49
21
22
23
24,25
9,21,54,108
27
28
29
32,61,64,94
34
35
36,38,39,44
56,66
40
41
48
50
51
52
53
55
57
59
67,70,75,76,77,81,82,83
9,19,22,28,42,68,71,109
9,17,19,22,47,58,71,99
0,9,18,19,22,28,68,71,109
38,43,44,45
38,43,44,46
63
65
29,65
68
69
72,73,74
78
41,78
79
30,80
31,80
80,95
84
85
86
87
88
89
90
91
92
93
15,26,27,34,40,100,101
18,102
11,96
97
98
99
15,33,51,52,84,85,92,93
101
15,29,37
15,29,109
62,103,104,105,106
12,16,107
